Name: PCB 18
Formula: C12H7Cl3
PRECURSORMZ: 255.9608
MW: 256
RI: 1821
SMILES: C1=CC=C(C(=C1)C2=C(C=CC(=C2)Cl)Cl)Cl
INCHIKEY: DCMURXAZTZQAFB-UHFFFAOYSA-N
Num peaks: 153
39.0234 3
46.9678 2
48.9836 5
50.0152 28
51.023 19
52.0315 2
59.9757 4
61.0071 23
61.5115 13
61.9737 2
62.0151 42
63.0231 19
71.9761 4
72.9839 31
73.5087 4
73.9736 2
74.0151 83
74.0506 4
74.5196 16
74.9817 5
75.0231 178
75.0439 8
75.5253 22
76.0291 4
77.0381 4
78.995 7
80.0038 26
80.5054 4
81.003 6
83.9764 14
85.0071 21
86.015 27
86.9809 5
87.0228 22
89.0383 1
89.5307 17
90.0316 4
92.0038 49
92.5073 21
93.0114 178
93.0659 4
93.5131 29
94.0102 55
94.07 3
94.5119 7
95.9767 4
96.9836 27
97.4856 2
97.983 13
98.0151 62
98.9815 8
99.0227 57
100.0308 12
101.0379 11
103.0422 3
106.5109 28
106.9455 3
107.0125 6
107.5098 10
107.9759 9
108.9428 2
108.984 18
109.9921 152
110.0153 21
110.0468 6
110.4949 31
110.9905 92
111.0229 22
111.4939 17
111.9891 21
113.0388 13
114.9723 5
115.9684 4
119.9756 5
120.9837 9
122.0152 21
123.023 43
123.9954 8
124.0311 18
124.9938 7
125.0383 34
126.0459 10
127.0507 2
127.9806 51
128.4812 7
128.9789 52
129.0441 4
129.48 8
129.9771 18
130.4792 3
131.9755 2
132.9842 7
133.991 6
134.9991 12
136.0076 15
136.997 5
137.0385 5
138.0046 5
144.9845 5
146.0158 3
147.0002 13
148.0072 10
149.0389 65
150.0466 330
150.1012 5
151.0539 257
151.1089 7
152.0575 29
153.0418 3
158.9997 12
160.0076 27
160.1111 2
160.9958 8
162.004 10
169.9695 8
171.9654 6
172.9549 2
174.9542 2
179.0608 1
184.0075 19
185.0148 41
186.0233 999
187.0263 133
187.0661 4
188.0204 313
188.067 5
188.0945 5
188.1414 11
189.0237 45
190.0278 3
193.9685 7
195.9658 7
206.9748 2
208.9742 2
213.0231 3
219.984 32
220.9923 466
221.0844 2
221.9953 82
222.9895 299
223.9924 43
224.9863 44
225.0414 2
225.9886 6
255.9616 638
256.9643 83
257.9588 610
258.9618 80
259.955 193
260.0038 8
260.9572 23
261.9515 22
403.0304 1

Name: Phenanthren
Formula: C14H10
PRECURSORMZ: 178.0777
MW: 178
RI: 1827
SMILES: C1=CC=C2C(=C1)C=CC3=CC=CC=C32
INCHIKEY: YNPNZTXNASCQKK-UHFFFAOYSA-N
Num peaks: 61
39.0229 3
41.0381 2
43.9894 4
50.0151 8
51.0228 4
62.0149 13
63.0233 36
63.5242 3
73.0471 5
74.0161 18
75.0233 46
76.0311 121
76.5328 17
77.038 2
85.0072 3
86.0161 9
87.0227 21
87.5254 10
88.0311 75
88.5336 9
89.0391 113
89.5406 17
91.0544 10
96.0043 2
96.5043 3
98.0153 11
99.0227 6
104.9822 2
113.0386 5
115.0558 4
125.0013 2
125.0391 6
126.0471 11
128.0626 6
139.0538 12
149.039 13
150.0462 69
151.0541 79
152.0615 129
153.0645 19
162.0479 3
174.0479 22
175.0542 29
176.0624 209
177.0699 95
178.0783 999
179.0813 159
180.0851 10
184.0352 5
186.0233 6
194.0183 2
197.0783 1
208.0339 2
209.0314 2
220.9929 4
222.9894 2
248.9903 2
255.9605 5
281.0515 2
282.0526 1
343.0696 1
